c Path planning problem for ProbSAT
c Generated by gen_cnf.py
p cnf 105 115
1 2 3 4 5 6 7 0
8 9 10 11 12 13 14 0
15 16 17 18 19 20 21 0
22 23 24 25 26 27 28 0
29 30 31 32 33 34 35 0
36 37 38 39 40 41 42 0
43 44 45 46 47 48 49 0
50 51 52 53 54 55 56 0
57 58 59 60 61 62 63 0
64 65 66 67 68 69 70 0
71 72 73 74 75 76 77 0
78 79 80 81 82 83 84 0
85 86 87 88 89 90 91 0
92 93 94 95 96 97 98 0
99 100 101 102 103 104 105 0
-1 8 10 0
-2 9 12 0
-3 10 13 8 11 0
-4 11 12 10 0
-5 12 14 9 11 0
-6 13 10 0
-7 14 12 0
-8 15 17 0
-9 16 19 0
-10 17 20 15 18 0
-11 18 19 17 0
-12 19 21 16 18 0
-13 20 17 0
-14 21 19 0
-15 22 24 0
-16 23 26 0
-17 24 27 22 25 0
-18 25 26 24 0
-19 26 28 23 25 0
-20 27 24 0
-21 28 26 0
-22 29 31 0
-23 30 33 0
-24 31 34 29 32 0
-25 32 33 31 0
-26 33 35 30 32 0
-27 34 31 0
-28 35 33 0
-29 36 38 0
-30 37 40 0
-31 38 41 36 39 0
-32 39 40 38 0
-33 40 42 37 39 0
-34 41 38 0
-35 42 40 0
-36 43 45 0
-37 44 47 0
-38 45 48 43 46 0
-39 46 47 45 0
-40 47 49 44 46 0
-41 48 45 0
-42 49 47 0
-43 50 52 0
-44 51 54 0
-45 52 55 50 53 0
-46 53 54 52 0
-47 54 56 51 53 0
-48 55 52 0
-49 56 54 0
-50 57 59 0
-51 58 61 0
-52 59 62 57 60 0
-53 60 61 59 0
-54 61 63 58 60 0
-55 62 59 0
-56 63 61 0
-57 64 66 0
-58 65 68 0
-59 66 69 64 67 0
-60 67 68 66 0
-61 68 70 65 67 0
-62 69 66 0
-63 70 68 0
-64 71 73 0
-65 72 75 0
-66 73 76 71 74 0
-67 74 75 73 0
-68 75 77 72 74 0
-69 76 73 0
-70 77 75 0
-71 78 80 0
-72 79 82 0
-73 80 83 78 81 0
-74 81 82 80 0
-75 82 84 79 81 0
-76 83 80 0
-77 84 82 0
-78 85 87 0
-79 86 89 0
-80 87 90 85 88 0
-81 88 89 87 0
-82 89 91 86 88 0
-83 90 87 0
-84 91 89 0
-85 92 94 0
-86 93 96 0
-87 94 97 92 95 0
-88 95 96 94 0
-89 96 98 93 95 0
-90 97 94 0
-91 98 96 0
-92 99 101 0
-93 100 103 0
-94 101 104 99 102 0
-95 102 103 101 0
-96 103 105 100 102 0
-97 104 101 0
-98 105 103 0
1 0
105 0
